nNurses = 168;
nHours = 40;
minHours = 10;
maxHours = 11;
maxConsec = 8;
maxPresence = 30;
demand = [21, 16, 20, 15, 20, 17, 12, 13, 13, 16, 13, 16, 19, 16, 21, 22, 18, 19, 23, 27, 25, 26, 23, 25, 25, 22, 24, 22, 19, 22, 27, 23, 28, 23, 19, 17, 17, 13, 13, 12];
